c This is UnifRandomKSATGenerator
c uniform random 3-SAT generated instance with: 
c clause length: 3 
c number variables: 20 
c number clauses: 85 
c clause to variable ratio: 4.27 
c random number generator name: SHA1PRNG 
c random number generator provider: SUN 
c random number generator seed: 1672908006492718624 
p cnf 20 85
-3 -12 11 0
8 1 7 0
-12 20 5 0
-9 -5 13 0
4 5 13 0
17 -18 -15 0
8 10 -19 0
-18 10 11 0
17 12 13 0
-3 18 -4 0
-19 18 -20 0
-17 11 4 0
16 -13 4 0
-19 11 -8 0
10 -4 -13 0
17 3 12 0
9 -19 11 0
19 20 -14 0
-19 -15 -8 0
-18 3 -5 0
-19 -6 -15 0
-17 8 -3 0
1 12 -15 0
-1 3 -8 0
-17 -11 3 0
16 -12 7 0
16 7 -8 0
-4 20 15 0
-4 15 7 0
10 -3 -5 0
10 -13 -14 0
2 11 3 0
-9 17 -3 0
16 -19 -15 0
8 20 15 0
16 -17 -20 0
-17 -10 -8 0
-1 -19 -6 0
-13 14 15 0
1 2 6 0
2 -7 15 0
2 12 4 0
16 8 19 0
3 6 -15 0
-10 -2 -3 0
-17 18 7 0
1 12 -16 0
-1 -17 12 0
-10 -3 4 0
-19 3 20 0
-19 -5 15 0
16 -11 3 0
16 -1 -13 0
16 10 13 0
9 11 15 0
-19 11 4 0
10 -14 6 0
-9 -4 -8 0
-11 -4 3 0
18 -12 -15 0
-9 16 -8 0
8 18 7 0
-1 -18 6 0
-1 -12 -5 0
-17 -4 -15 0
-2 19 15 0
11 -4 20 0
-1 -6 15 0
-18 -19 -14 0
-18 -11 -16 0
8 -18 14 0
2 3 -13 0
18 12 -16 0
-10 -11 -6 0
-10 -5 -8 0
-2 -15 7 0
-18 7 -8 0
8 -2 13 0
8 12 13 0
-1 17 2 0
-18 -6 -7 0
17 -10 -11 0
-12 13 14 0
-9 -11 -8 0
11 -5 14 0
